; benchmark generated from python API
(set-info :status unknown)
(declare-fun S_3 () Real)
(declare-fun S_4 () Real)
(declare-fun C () Real)
(declare-fun L_1 () Real)
(declare-fun A_1 () Real)
(declare-fun L_2 () Real)
(declare-fun S_2 () Real)
(declare-fun A_2 () Real)
(declare-fun S_1 () Real)
(declare-fun L_0 () Real)
(declare-fun S_0 () Real)
(declare-fun A_0 () Real)
(declare-fun L_3 () Real)
(declare-fun A_3 () Real)
(declare-fun A_4 () Real)
(declare-fun B () Real)
(assert
 (let (($x34 (>= L_0 0.0)))
 (let (($x709 (>= C 5.0)))
 (let (($x533 (>= B 5.0)))
 (let (($x1353 (<= (+ A_2 (* (- 1.0) L_2) C (* (- 1.0) S_4)) 0.0)))
 (let (($x1261 (<= (+ A_3 (* (- 1.0) L_3) (* (- 1.0) S_4)) 0.0)))
 (let (($x8274 (or $x1261 $x1353 (<= (+ (* 2.0 C) (* (- 1.0) S_4) S_1) 0.0))))
 (let (($x1265 (<= (+ A_2 (* (- 1.0) S_3) (* (- 1.0) L_2)) 0.0)))
 (let (($x7382 (or $x1265 (<= (+ A_1 (* (- 1.0) L_1) C (* (- 1.0) S_3)) 0.0) (<= (+ (* 2.0 C) (* (- 1.0) S_3) S_0) 0.0))))
 (let (($x10546 (<= 0.0 (+ (* (- 1.0) A_1) C S_0 L_1))))
 (let (($x10547 (not $x10546)))
 (let (($x10437 (<= 0.0 (+ (* (- 1.0) A_2) A_1 (* (- 1.0) L_1) C L_2))))
 (let (($x2238 (<= (+ A_1 (* (- 1.0) L_1) (* 2.0 C) (* (- 1.0) S_4)) 0.0)))
 (let (($x10936 (or $x1261 $x1353 (<= (+ (* 3.0 C) (* (- 1.0) S_4) S_0) 0.0) $x10546)))
 (let (($x5434 (or (<= (+ A_1 (* (- 1.0) L_1) (* (- 1.0) S_2)) 0.0) (<= (+ C (* (- 1.0) S_2) S_0) 0.0))))
 (let ((?x504 (* (- 1.0) B)))
 (let ((?x461 (* (- 1.0) L_3)))
 (let ((?x850 (* (- 2.0) C)))
 (let ((?x391 (* (- 1.0) A_1)))
 (let (($x10466 (<= 0.0 (+ A_3 ?x391 ?x850 L_1 ?x461 ?x504))))
 (let ((?x834 (* 2.0 C)))
 (let ((?x487 (* (- 1.0) L_1)))
 (let ((?x383 (* (- 1.0) A_3)))
 (let (($x2800 (<= (+ A_3 (* (- 1.0) A_0) (* (- 3.0) C) ?x461 ?x504 L_0) 0.0)))
 (let (($x10495 (<= 0.0 (+ A_3 (* (- 1.0) A_2) (* (- 1.0) C) L_2 ?x461 ?x504))))
 (let (($x71 (= L_3 L_2)))
 (let (($x2144 (<= (+ ?x383 (* 3.0 C) S_0 L_3 B) 0.0)))
 (let (($x2710 (<= (+ ?x383 ?x834 S_1 L_3 B) 0.0)))
 (let (($x1283 (<= (+ L_3 (* (- 1.0) L_2) ?x504) 0.0)))
 (let (($x61 (= L_2 L_1)))
 (let (($x10572 (or $x61 (<= (+ (* (- 1.0) A_2) (* (- 1.0) C) S_3 L_2 B) 0.0))))
 (let (($x1271 (<= (+ A_3 (* (- 1.0) A_2) ?x461 (* (- 1.0) C) L_2) 0.0)))
 (let (($x20686 (or $x71 (not $x1271) (= (+ ?x383 A_2 C (* (- 1.0) L_2) L_3) 0.0))))
 (let (($x2502 (<= (+ A_2 (* (- 3.0) C) (* (- 1.0) S_0) (* (- 1.0) L_2) ?x504) 0.0)))
 (let (($x2442 (<= (+ A_2 (* (- 1.0) C) (* (- 1.0) S_2) (* (- 1.0) L_2) ?x504) 0.0)))
 (let (($x10441 (<= 0.0 (+ A_2 ?x391 (* (- 1.0) C) L_1 (* (- 1.0) L_2) ?x504))))
 (let (($x10548 (or $x61 (<= (+ (* (- 1.0) A_2) ?x834 S_0 L_2 B) 0.0) $x10546)))
 (let (($x20089 (or $x1261 (<= (+ A_2 C (* (- 1.0) S_4) (* (- 1.0) L_2) ?x504) 0.0))))
 (let (($x2792 (<= (+ A_3 (* (- 1.0) S_4) ?x461 ?x504) 0.0)))
 (let (($x2326 (<= (+ A_2 (* (- 1.0) A_0) ?x850 (* (- 1.0) L_2) ?x504 L_0) 0.0)))
 (let (($x20399 (or (= (+ (* (- 1.0) A_2) A_1 ?x487 C L_2 B) 0.0) (not $x10441))))
 (let (($x51 (= L_1 L_0)))
 (let (($x726 (not $x51)))
 (let (($x20104 (or $x61 $x726 (<= (+ (* (- 1.0) A_2) A_1 C L_2 (* (- 1.0) L_0)) 0.0))))
 (let (($x1420 (= (+ ?x383 A_2 (* (- 1.0) L_2) C L_3 B) 0.0)))
 (let (($x20292 (or $x71 $x726 (<= (+ ?x383 A_1 ?x834 L_3 (* (- 1.0) L_0)) 0.0) $x10495)))
 (let (($x2444 (<= (+ A_2 (* (- 1.0) S_3) (* (- 1.0) L_2) ?x504) 0.0)))
 (let (($x348 (<= 0.0 (+ (* (- 1.0) A_2) A_1 C ?x487 L_2 ?x504))))
 (let (($x20143 (or $x348 (<= (+ A_1 (* (- 1.0) S_4) ?x834 ?x487 ?x504) 0.0) $x1261)))
 (let (($x958 (<= (+ A_1 (* (- 1.0) A_0) (* (- 1.0) C) ?x487 ?x504 L_0) 0.0)))
 (let (($x922 (<= (+ A_1 (* (- 1.0) S_2) ?x487 ?x504) 0.0)))
 (let (($x108 (>= S_1 S_0)))
 (let (($x111 (>= S_2 S_1)))
 (let (($x114 (>= S_3 S_2)))
 (let (($x117 (>= S_4 S_3)))
 (let (($x119 (>= A_1 A_0)))
 (let (($x120 (>= A_2 A_1)))
 (let (($x121 (>= A_3 A_2)))
 (let (($x122 (>= A_4 A_3)))
 (and $x122 $x121 $x120 $x119 $x117 $x114 $x111 $x108 (or $x51 (not (<= 0.0 (+ ?x487 L_0)))) $x922 $x958 (or $x61 (not $x348)) (<= (+ A_1 ?x850 (* (- 1.0) S_0) ?x487 ?x504) 0.0) (<= (+ A_1 (* (- 1.0) C) (* (- 1.0) S_1) ?x487 ?x504) 0.0) (or $x51 (<= (+ ?x391 S_1 L_1 B) 0.0)) (or $x51 (<= (+ ?x391 C S_0 L_1 B) 0.0)) (or $x348 (<= (+ A_1 (* (- 1.0) S_3) C ?x487 ?x504) 0.0)) (or (<= (+ A_1 (* (- 1.0) S_3) C ?x487 ?x504) 0.0) $x1265) (or $x51 (<= 0.0 (+ ?x383 A_1 ?x834 ?x487 L_2)) (not $x71)) (or $x51 $x71 $x348 (= (+ ?x383 A_1 L_3 ?x834 ?x487) 0.0)) (or $x51 (<= (+ ?x391 (* (- 1.0) C) S_2 L_1 B) 0.0)) (or $x51 $x61 (= (+ (* (- 1.0) A_2) A_1 C ?x487 L_2) 0.0)) (or $x51 (<= 0.0 (+ (* (- 1.0) A_2) A_1 C)) (not $x61)) (or $x51 (<= (+ ?x391 S_3 ?x850 L_1 B) 0.0)) (or $x51 (<= (+ ?x391 (* (- 3.0) C) S_4 L_1 B) 0.0)) (or $x71 (not $x348) $x1420) (or (not $x348) $x1261 $x1353) $x20143 (or $x61 $x1271) (or $x61 (<= (+ (* (- 1.0) A_2) S_2 L_2 B) 0.0)) (or $x71 (<= (+ ?x383 S_3 L_3 B) 0.0)) (or $x71 (<= (+ ?x383 (* (- 1.0) C) S_4 L_3 B) 0.0)) $x2444 (or $x61 (not (<= 0.0 (+ L_1 (* (- 1.0) L_2))))) (<= (+ ?x850 S_1 (* (- 1.0) S_0)) 0.0) $x20292 (or $x1420 (not $x10495)) $x20104 $x20399 (<= (+ A_2 ?x850 (* (- 1.0) S_1) (* (- 1.0) L_2) ?x504) 0.0) $x2326 (<= (+ (* (- 1.0) A_0) (* (- 1.0) C) S_1 L_0) 0.0) (or $x61 (<= (+ (* (- 1.0) A_2) C S_1 L_2 B) 0.0)) $x2792 $x20089 $x10548 (or $x61 $x10441 $x10547) $x2442 (or $x71 (not (<= 0.0 (+ L_2 ?x461)))) $x2502 $x20686 (or $x61 (<= (+ (* (- 1.0) A_2) ?x850 S_4 L_2 B) 0.0)) $x10572 (or $x71 (<= (+ ?x383 C S_2 L_3 B) 0.0)) (or $x1283 $x2710 $x10495) (or $x71 $x10495 $x2710) (or $x1283 $x2144 $x10466 $x10495) (or $x71 $x2144 $x10495 $x10546) (or $x71 $x10466 $x10495 $x10547) (<= (+ A_3 (* (- 1.0) C) (* (- 1.0) S_3) ?x461 ?x504) 0.0) (<= (+ A_3 (* (- 4.0) C) (* (- 1.0) S_0) ?x461 ?x504) 0.0) (<= (+ A_3 ?x850 (* (- 1.0) S_2) ?x461 ?x504) 0.0) (<= (+ A_3 (* (- 3.0) C) (* (- 1.0) S_1) ?x461 ?x504) 0.0) $x2800 (or (= (+ ?x383 A_1 ?x487 ?x834 L_3 B) 0.0) (not $x10466)) $x5434 (or $x1265 (<= (+ C (* (- 1.0) S_3) S_1) 0.0)) (<= (+ (* (- 1.0) A_2) L_2 (* (- 1.0) C) S_3) 0.0) (<= (+ ?x850 S_3 (* (- 1.0) S_2)) 0.0) $x10936 (or $x1261 (<= (+ C (* (- 1.0) S_4) S_2) 0.0)) (or $x1261 $x2238 $x10437 $x10547) (or $x1261 $x1353 (not $x10437) $x10547) $x7382 (<= (+ (* (- 3.0) C) S_3 (* (- 1.0) S_1)) 0.0) (<= (+ (* (- 1.0) A_2) L_2 ?x850 S_4) 0.0) $x8274 (<= (+ (* (- 1.0) A_0) ?x850 S_2 L_0) 0.0) (<= (+ (* (- 3.0) C) S_2 (* (- 1.0) S_0)) 0.0) (<= (+ ?x850 S_2 (* (- 1.0) S_1)) 0.0) (<= (+ (* (- 1.0) A_0) (* (- 3.0) C) S_3 L_0) 0.0) (<= (+ (* (- 4.0) C) S_3 (* (- 1.0) S_0)) 0.0) (<= (+ (* (- 5.0) C) S_4 (* (- 1.0) S_0)) 0.0) (<= (+ (* (- 1.0) A_0) (* (- 4.0) C) S_4 L_0) 0.0) (<= (+ (* (- 3.0) C) S_4 (* (- 1.0) S_2)) 0.0) (<= (+ (* (- 4.0) C) S_4 (* (- 1.0) S_1)) 0.0) $x533 $x709 $x34 (<= (+ (* (- 1.0) A_4) L_3 S_4) 0.0) (<= (+ ?x383 L_3 (* (- 1.0) C) S_4) 0.0) (<= (+ ?x383 L_3 S_3) 0.0) (<= (+ (* (- 1.0) A_0) S_0 L_0) 0.0) (<= (+ ?x391 L_1 S_1) 0.0) (<= (+ ?x391 L_1 (* (- 1.0) C) S_2) 0.0) (<= (+ (* (- 1.0) A_2) S_2 L_2) 0.0) (<= (+ ?x391 L_1 (* (- 3.0) C) S_4) 0.0) (<= (+ ?x391 L_1 ?x850 S_3) 0.0) (<= (+ ?x850 S_4 (* (- 1.0) S_3)) 0.0)))))))))))))))))))))))))))))))))))))))))))))))))))))))))))))
(check-sat)
